5015
5480
5870
6260
6537
6771
7037
7245
7424
7550
7676
7755
7830
7892
7942
7974
8006
8049
8085
8109
8126
8145
8165
8179
8198
8219
8239
8242
8242
8242
8242
8242
8242
8242
8242
8242
8242
8242
8242
8242
8242
8242
8242
8242
8242
8242
8242
8242
8242
8242
8242
8242
8242
8242
8242
8242
8242
8242
8242
8242
8242
8242
8242
8242
8242
8242
8242
8242
8242
8242
8242
8242
8242
8242
8242
8242
8242
8242
8242
8242
8242
8242
8242
8242
8242
8242
8242
8242
8242
8242
8242
8242
8242
8242
8242
8242
8242
8242
8242
